multiobj/instances/uniform/Ter.5.2.1.00.1.in
5 2
0 771 544 977 248 
771 0 574 244 593 
544 574 0 691 433 
977 244 691 0 73 
248 593 433 73 0 
0 813 753 434 137 
813 0 210 449 943 
753 210 0 943 330 
434 449 943 0 902 
137 943 330 902 0 
0 813 753 434 137 
813 0 210 449 943 
753 210 0 943 330 
434 449 943 0 902 
137 943 330 902 0 
