multiobj/solutions/Ter.5.2.1.00.1.out
1 2
2 1 0 4 3 
4878524 4878524 
